n_res = 5;
rc = [ 3, 3, 3, 3, 3 ];
n_tasks = 225;
d = [ 58, 44, 5, 9, 58, 89, 97, 96, 77, 84, 77, 87, 81, 39, 85, 57, 21, 31, 15, 73, 48, 40, 49, 70, 71, 34, 82, 80, 10, 22, 91, 75, 55, 17, 7, 62, 47, 72, 35, 11, 64, 75, 50, 90, 94, 67, 20, 15, 12, 71, 52, 93, 68, 29, 57, 70, 58, 93, 7, 77, 27, 82, 63, 6, 95, 87, 56, 36, 26, 48, 76, 36, 36, 15, 8, 58, 44, 5, 9, 58, 89, 97, 96, 77, 84, 77, 87, 81, 39, 85, 57, 21, 31, 15, 73, 48, 40, 49, 70, 71, 34, 82, 80, 10, 22, 91, 75, 55, 17, 7, 62, 47, 72, 35, 11, 64, 75, 50, 90, 94, 67, 20, 15, 12, 71, 52, 93, 68, 29, 57, 70, 58, 93, 7, 77, 27, 82, 63, 6, 95, 87, 56, 36, 26, 48, 76, 36, 36, 15, 8, 58, 44, 5, 9, 58, 89, 97, 96, 77, 84, 77, 87, 81, 39, 85, 57, 21, 31, 15, 73, 48, 40, 49, 70, 71, 34, 82, 80, 10, 22, 91, 75, 55, 17, 7, 62, 47, 72, 35, 11, 64, 75, 50, 90, 94, 67, 20, 15, 12, 71, 52, 93, 68, 29, 57, 70, 58, 93, 7, 77, 27, 82, 63, 6, 95, 87, 56, 36, 26, 48, 76, 36, 36, 15, 8 ];
rr = [| 0, 0, 0, 1, 0, 0, 1, 0, 0, 0, 1, 0, 0, 0, 0, 0, 0, 0, 1, 0, 0, 1, 0, 0, 0, 0, 0, 0, 1, 0, 0, 0, 1, 0, 0, 0, 0, 0, 0, 1, 1, 0, 0, 0, 0, 0, 0, 0, 1, 0, 1, 0, 0, 0, 0, 0, 1, 0, 0, 0, 0, 0, 0, 0, 1, 0, 0, 0, 1, 0, 0, 0, 1, 0, 0, 0, 0, 0, 1, 0, 0, 1, 0, 0, 0, 1, 0, 0, 0, 0, 0, 0, 0, 1, 0, 0, 1, 0, 0, 0, 0, 0, 0, 1, 0, 0, 0, 1, 0, 0, 0, 0, 0, 0, 1, 1, 0, 0, 0, 0, 0, 0, 0, 1, 0, 1, 0, 0, 0, 0, 0, 1, 0, 0, 0, 0, 0, 0, 0, 1, 0, 0, 0, 1, 0, 0, 0, 1, 0, 0, 0, 0, 0, 1, 0, 0, 1, 0, 0, 0, 1, 0, 0, 0, 0, 0, 0, 0, 1, 0, 0, 1, 0, 0, 0, 0, 0, 0, 1, 0, 0, 0, 1, 0, 0, 0, 0, 0, 0, 1, 1, 0, 0, 0, 0, 0, 0, 0, 1, 0, 1, 0, 0, 0, 0, 0, 1, 0, 0, 0, 0, 0, 0, 0, 1, 0, 0, 0, 1, 0, 0, 0, 1, 0, 0
      | 1, 0, 0, 0, 0, 1, 0, 0, 0, 0, 0, 1, 0, 0, 0, 0, 1, 0, 0, 0, 0, 0, 1, 0, 0, 0, 0, 0, 0, 1, 1, 0, 0, 0, 0, 0, 0, 1, 0, 0, 0, 0, 0, 1, 0, 0, 0, 0, 0, 1, 0, 0, 0, 0, 1, 0, 0, 1, 0, 0, 0, 0, 1, 0, 0, 1, 0, 0, 0, 0, 0, 0, 0, 0, 1, 1, 0, 0, 0, 0, 1, 0, 0, 0, 0, 0, 1, 0, 0, 0, 0, 1, 0, 0, 0, 0, 0, 1, 0, 0, 0, 0, 0, 0, 1, 1, 0, 0, 0, 0, 0, 0, 1, 0, 0, 0, 0, 0, 1, 0, 0, 0, 0, 0, 1, 0, 0, 0, 0, 1, 0, 0, 1, 0, 0, 0, 0, 1, 0, 0, 1, 0, 0, 0, 0, 0, 0, 0, 0, 1, 1, 0, 0, 0, 0, 1, 0, 0, 0, 0, 0, 1, 0, 0, 0, 0, 1, 0, 0, 0, 0, 0, 1, 0, 0, 0, 0, 0, 0, 1, 1, 0, 0, 0, 0, 0, 0, 1, 0, 0, 0, 0, 0, 1, 0, 0, 0, 0, 0, 1, 0, 0, 0, 0, 1, 0, 0, 1, 0, 0, 0, 0, 1, 0, 0, 1, 0, 0, 0, 0, 0, 0, 0, 0, 1
      | 0, 1, 0, 0, 0, 0, 0, 0, 0, 1, 0, 0, 1, 0, 0, 0, 0, 1, 0, 0, 1, 0, 0, 0, 0, 0, 0, 1, 0, 0, 0, 0, 0, 1, 0, 1, 0, 0, 0, 0, 0, 0, 0, 0, 1, 1, 0, 0, 0, 0, 0, 0, 0, 1, 0, 1, 0, 0, 0, 0, 0, 1, 0, 0, 0, 0, 1, 0, 0, 0, 0, 1, 0, 0, 0, 0, 1, 0, 0, 0, 0, 0, 0, 0, 1, 0, 0, 1, 0, 0, 0, 0, 1, 0, 0, 1, 0, 0, 0, 0, 0, 0, 1, 0, 0, 0, 0, 0, 1, 0, 1, 0, 0, 0, 0, 0, 0, 0, 0, 1, 1, 0, 0, 0, 0, 0, 0, 0, 1, 0, 1, 0, 0, 0, 0, 0, 1, 0, 0, 0, 0, 1, 0, 0, 0, 0, 1, 0, 0, 0, 0, 1, 0, 0, 0, 0, 0, 0, 0, 1, 0, 0, 1, 0, 0, 0, 0, 1, 0, 0, 1, 0, 0, 0, 0, 0, 0, 1, 0, 0, 0, 0, 0, 1, 0, 1, 0, 0, 0, 0, 0, 0, 0, 0, 1, 1, 0, 0, 0, 0, 0, 0, 0, 1, 0, 1, 0, 0, 0, 0, 0, 1, 0, 0, 0, 0, 1, 0, 0, 0, 0, 1, 0, 0, 0
      | 0, 0, 1, 0, 0, 0, 0, 0, 1, 0, 0, 0, 0, 0, 1, 1, 0, 0, 0, 0, 0, 0, 0, 1, 0, 1, 0, 0, 0, 0, 0, 0, 0, 0, 1, 0, 1, 0, 0, 0, 0, 1, 0, 0, 0, 0, 0, 1, 0, 0, 0, 0, 1, 0, 0, 0, 0, 0, 0, 1, 1, 0, 0, 0, 0, 0, 0, 0, 0, 1, 1, 0, 0, 0, 0, 0, 0, 1, 0, 0, 0, 0, 0, 1, 0, 0, 0, 0, 0, 1, 1, 0, 0, 0, 0, 0, 0, 0, 1, 0, 1, 0, 0, 0, 0, 0, 0, 0, 0, 1, 0, 1, 0, 0, 0, 0, 1, 0, 0, 0, 0, 0, 1, 0, 0, 0, 0, 1, 0, 0, 0, 0, 0, 0, 1, 1, 0, 0, 0, 0, 0, 0, 0, 0, 1, 1, 0, 0, 0, 0, 0, 0, 1, 0, 0, 0, 0, 0, 1, 0, 0, 0, 0, 0, 1, 1, 0, 0, 0, 0, 0, 0, 0, 1, 0, 1, 0, 0, 0, 0, 0, 0, 0, 0, 1, 0, 1, 0, 0, 0, 0, 1, 0, 0, 0, 0, 0, 1, 0, 0, 0, 0, 1, 0, 0, 0, 0, 0, 0, 1, 1, 0, 0, 0, 0, 0, 0, 0, 0, 1, 1, 0, 0, 0, 0
      | 0, 0, 0, 0, 1, 0, 0, 1, 0, 0, 0, 0, 0, 1, 0, 0, 0, 0, 0, 1, 0, 0, 0, 0, 1, 0, 1, 0, 0, 0, 0, 1, 0, 0, 0, 0, 0, 0, 1, 0, 0, 0, 1, 0, 0, 0, 1, 0, 0, 0, 0, 1, 0, 0, 0, 0, 0, 0, 1, 0, 0, 0, 0, 1, 0, 0, 0, 1, 0, 0, 0, 0, 0, 1, 0, 0, 0, 0, 0, 1, 0, 0, 1, 0, 0, 0, 0, 0, 1, 0, 0, 0, 0, 0, 1, 0, 0, 0, 0, 1, 0, 1, 0, 0, 0, 0, 1, 0, 0, 0, 0, 0, 0, 1, 0, 0, 0, 1, 0, 0, 0, 1, 0, 0, 0, 0, 1, 0, 0, 0, 0, 0, 0, 1, 0, 0, 0, 0, 1, 0, 0, 0, 1, 0, 0, 0, 0, 0, 1, 0, 0, 0, 0, 0, 1, 0, 0, 1, 0, 0, 0, 0, 0, 1, 0, 0, 0, 0, 0, 1, 0, 0, 0, 0, 1, 0, 1, 0, 0, 0, 0, 1, 0, 0, 0, 0, 0, 0, 1, 0, 0, 0, 1, 0, 0, 0, 1, 0, 0, 0, 0, 1, 0, 0, 0, 0, 0, 0, 1, 0, 0, 0, 0, 1, 0, 0, 0, 1, 0, 0, 0, 0, 0, 1, 0 |];
suc = [ { 2 },
        { 3 },
        { 4 },
        { 5 },
        {  },
        { 7 },
        { 8 },
        { 9 },
        { 10 },
        {  },
        { 12 },
        { 13 },
        { 14 },
        { 15 },
        {  },
        { 17 },
        { 18 },
        { 19 },
        { 20 },
        {  },
        { 22 },
        { 23 },
        { 24 },
        { 25 },
        {  },
        { 27 },
        { 28 },
        { 29 },
        { 30 },
        {  },
        { 32 },
        { 33 },
        { 34 },
        { 35 },
        {  },
        { 37 },
        { 38 },
        { 39 },
        { 40 },
        {  },
        { 42 },
        { 43 },
        { 44 },
        { 45 },
        {  },
        { 47 },
        { 48 },
        { 49 },
        { 50 },
        {  },
        { 52 },
        { 53 },
        { 54 },
        { 55 },
        {  },
        { 57 },
        { 58 },
        { 59 },
        { 60 },
        {  },
        { 62 },
        { 63 },
        { 64 },
        { 65 },
        {  },
        { 67 },
        { 68 },
        { 69 },
        { 70 },
        {  },
        { 72 },
        { 73 },
        { 74 },
        { 75 },
        {  },
        { 77 },
        { 78 },
        { 79 },
        { 80 },
        {  },
        { 82 },
        { 83 },
        { 84 },
        { 85 },
        {  },
        { 87 },
        { 88 },
        { 89 },
        { 90 },
        {  },
        { 92 },
        { 93 },
        { 94 },
        { 95 },
        {  },
        { 97 },
        { 98 },
        { 99 },
        { 100 },
        {  },
        { 102 },
        { 103 },
        { 104 },
        { 105 },
        {  },
        { 107 },
        { 108 },
        { 109 },
        { 110 },
        {  },
        { 112 },
        { 113 },
        { 114 },
        { 115 },
        {  },
        { 117 },
        { 118 },
        { 119 },
        { 120 },
        {  },
        { 122 },
        { 123 },
        { 124 },
        { 125 },
        {  },
        { 127 },
        { 128 },
        { 129 },
        { 130 },
        {  },
        { 132 },
        { 133 },
        { 134 },
        { 135 },
        {  },
        { 137 },
        { 138 },
        { 139 },
        { 140 },
        {  },
        { 142 },
        { 143 },
        { 144 },
        { 145 },
        {  },
        { 147 },
        { 148 },
        { 149 },
        { 150 },
        {  },
        { 152 },
        { 153 },
        { 154 },
        { 155 },
        {  },
        { 157 },
        { 158 },
        { 159 },
        { 160 },
        {  },
        { 162 },
        { 163 },
        { 164 },
        { 165 },
        {  },
        { 167 },
        { 168 },
        { 169 },
        { 170 },
        {  },
        { 172 },
        { 173 },
        { 174 },
        { 175 },
        {  },
        { 177 },
        { 178 },
        { 179 },
        { 180 },
        {  },
        { 182 },
        { 183 },
        { 184 },
        { 185 },
        {  },
        { 187 },
        { 188 },
        { 189 },
        { 190 },
        {  },
        { 192 },
        { 193 },
        { 194 },
        { 195 },
        {  },
        { 197 },
        { 198 },
        { 199 },
        { 200 },
        {  },
        { 202 },
        { 203 },
        { 204 },
        { 205 },
        {  },
        { 207 },
        { 208 },
        { 209 },
        { 210 },
        {  },
        { 212 },
        { 213 },
        { 214 },
        { 215 },
        {  },
        { 217 },
        { 218 },
        { 219 },
        { 220 },
        {  },
        { 222 },
        { 223 },
        { 224 },
        { 225 },
        {  } ];
